2	25
496	248	725	721	318	505	842	232	196	680	21	268	431	886	484	40	291	602	614	529	31	233	60	952	77	
401	117	25	711	375	531	501	59	583	104	434	996	569	475	790	936	122	77	222	839	233	674	859	336	284	
2814	2814	
